p cnf 207 2282
-1 -73 0
-2 -74 0
-3 -75 0
-4 -76 0
-5 -77 0
-6 -78 0
-7 -79 0
-8 -80 0
-9 -81 0
-1 -28 0
-2 -29 0
-3 -30 0
-4 -31 0
-5 -32 0
-6 -33 0
-7 -34 0
-8 -35 0
-9 -36 0
-1 -64 0
-2 -65 0
-3 -66 0
-4 -67 0
-5 -68 0
-6 -69 0
-7 -70 0
-8 -71 0
-9 -72 0
-1 -145 0
-2 -146 0
-3 -147 0
-4 -148 0
-5 -149 0
-6 -150 0
-7 -151 0
-8 -152 0
-9 -153 0
-1 -154 0
-2 -155 0
-3 -156 0
-4 -157 0
-5 -158 0
-6 -159 0
-7 -160 0
-8 -161 0
-9 -162 0
-1 -91 0
-2 -92 0
-3 -93 0
-4 -94 0
-5 -95 0
-6 -96 0
-7 -97 0
-8 -98 0
-9 -99 0
-1 -10 0
-2 -11 0
-3 -12 0
-4 -13 0
-5 -14 0
-6 -15 0
-7 -16 0
-8 -17 0
-9 -18 0
-1 -118 0
-2 -119 0
-3 -120 0
-4 -121 0
-5 -122 0
-6 -123 0
-7 -124 0
-8 -125 0
-9 -126 0
-1 -46 0
-2 -47 0
-3 -48 0
-4 -49 0
-5 -50 0
-6 -51 0
-7 -52 0
-8 -53 0
-9 -54 0
-1 -82 0
-2 -83 0
-3 -84 0
-4 -85 0
-5 -86 0
-6 -87 0
-7 -88 0
-8 -89 0
-9 -90 0
-1 -55 0
-2 -56 0
-3 -57 0
-4 -58 0
-5 -59 0
-6 -60 0
-7 -61 0
-8 -62 0
-9 -63 0
-1 -190 0
-2 -191 0
-3 -192 0
-4 -193 0
-5 -194 0
-6 -195 0
-7 -196 0
-8 -197 0
-9 -198 0
-1 -37 0
-2 -38 0
-3 -39 0
-4 -40 0
-5 -41 0
-6 -42 0
-7 -43 0
-8 -44 0
-9 -45 0
-1 -163 0
-2 -164 0
-3 -165 0
-4 -166 0
-5 -167 0
-6 -168 0
-7 -169 0
-8 -170 0
-9 -171 0
-10 -28 0
-11 -29 0
-12 -30 0
-13 -31 0
-14 -32 0
-15 -33 0
-16 -34 0
-17 -35 0
-18 -36 0
-10 -64 0
-11 -65 0
-12 -66 0
-13 -67 0
-14 -68 0
-15 -69 0
-16 -70 0
-17 -71 0
-18 -72 0
-10 -154 0
-11 -155 0
-12 -156 0
-13 -157 0
-14 -158 0
-15 -159 0
-16 -160 0
-17 -161 0
-18 -162 0
-10 -91 0
-11 -92 0
-12 -93 0
-13 -94 0
-14 -95 0
-15 -96 0
-16 -97 0
-17 -98 0
-18 -99 0
-10 -46 0
-11 -47 0
-12 -48 0
-13 -49 0
-14 -50 0
-15 -51 0
-16 -52 0
-17 -53 0
-18 -54 0
-10 -37 0
-11 -38 0
-12 -39 0
-13 -40 0
-14 -41 0
-15 -42 0
-16 -43 0
-17 -44 0
-18 -45 0
-10 -163 0
-11 -164 0
-12 -165 0
-13 -166 0
-14 -167 0
-15 -168 0
-16 -169 0
-17 -170 0
-18 -171 0
-10 -181 0
-11 -182 0
-12 -183 0
-13 -184 0
-14 -185 0
-15 -186 0
-16 -187 0
-17 -188 0
-18 -189 0
-10 -118 0
-11 -119 0
-12 -120 0
-13 -121 0
-14 -122 0
-15 -123 0
-16 -124 0
-17 -125 0
-18 -126 0
-10 -19 0
-11 -20 0
-12 -21 0
-13 -22 0
-14 -23 0
-15 -24 0
-16 -25 0
-17 -26 0
-18 -27 0
-10 -55 0
-11 -56 0
-12 -57 0
-13 -58 0
-14 -59 0
-15 -60 0
-16 -61 0
-17 -62 0
-18 -63 0
-10 -190 0
-11 -191 0
-12 -192 0
-13 -193 0
-14 -194 0
-15 -195 0
-16 -196 0
-17 -197 0
-18 -198 0
-10 -100 0
-11 -101 0
-12 -102 0
-13 -103 0
-14 -104 0
-15 -105 0
-16 -106 0
-17 -107 0
-18 -108 0
-19 -73 0
-20 -74 0
-21 -75 0
-22 -76 0
-23 -77 0
-24 -78 0
-25 -79 0
-26 -80 0
-27 -81 0
-19 -28 0
-20 -29 0
-21 -30 0
-22 -31 0
-23 -32 0
-24 -33 0
-25 -34 0
-26 -35 0
-27 -36 0
-19 -136 0
-20 -137 0
-21 -138 0
-22 -139 0
-23 -140 0
-24 -141 0
-25 -142 0
-26 -143 0
-27 -144 0
-19 -154 0
-20 -155 0
-21 -156 0
-22 -157 0
-23 -158 0
-24 -159 0
-25 -160 0
-26 -161 0
-27 -162 0
-19 -91 0
-20 -92 0
-21 -93 0
-22 -94 0
-23 -95 0
-24 -96 0
-25 -97 0
-26 -98 0
-27 -99 0
-19 -181 0
-20 -182 0
-21 -183 0
-22 -184 0
-23 -185 0
-24 -186 0
-25 -187 0
-26 -188 0
-27 -189 0
-19 -118 0
-20 -119 0
-21 -120 0
-22 -121 0
-23 -122 0
-24 -123 0
-25 -124 0
-26 -125 0
-27 -126 0
-19 -109 0
-20 -110 0
-21 -111 0
-22 -112 0
-23 -113 0
-24 -114 0
-25 -115 0
-26 -116 0
-27 -117 0
-19 -199 0
-20 -200 0
-21 -201 0
-22 -202 0
-23 -203 0
-24 -204 0
-25 -205 0
-26 -206 0
-27 -207 0
-19 -127 0
-20 -128 0
-21 -129 0
-22 -130 0
-23 -131 0
-24 -132 0
-25 -133 0
-26 -134 0
-27 -135 0
-19 -46 0
-20 -47 0
-21 -48 0
-22 -49 0
-23 -50 0
-24 -51 0
-25 -52 0
-26 -53 0
-27 -54 0
-19 -172 0
-20 -173 0
-21 -174 0
-22 -175 0
-23 -176 0
-24 -177 0
-25 -178 0
-26 -179 0
-27 -180 0
-19 -100 0
-20 -101 0
-21 -102 0
-22 -103 0
-23 -104 0
-24 -105 0
-25 -106 0
-26 -107 0
-27 -108 0
-28 -73 0
-29 -74 0
-30 -75 0
-31 -76 0
-32 -77 0
-33 -78 0
-34 -79 0
-35 -80 0
-36 -81 0
-28 -136 0
-29 -137 0
-30 -138 0
-31 -139 0
-32 -140 0
-33 -141 0
-34 -142 0
-35 -143 0
-36 -144 0
-28 -64 0
-29 -65 0
-30 -66 0
-31 -67 0
-32 -68 0
-33 -69 0
-34 -70 0
-35 -71 0
-36 -72 0
-28 -163 0
-29 -164 0
-30 -165 0
-31 -166 0
-32 -167 0
-33 -168 0
-34 -169 0
-35 -170 0
-36 -171 0
-28 -46 0
-29 -47 0
-30 -48 0
-31 -49 0
-32 -50 0
-33 -51 0
-34 -52 0
-35 -53 0
-36 -54 0
-28 -100 0
-29 -101 0
-30 -102 0
-31 -103 0
-32 -104 0
-33 -105 0
-34 -106 0
-35 -107 0
-36 -108 0
-28 -145 0
-29 -146 0
-30 -147 0
-31 -148 0
-32 -149 0
-33 -150 0
-34 -151 0
-35 -152 0
-36 -153 0
-28 -91 0
-29 -92 0
-30 -93 0
-31 -94 0
-32 -95 0
-33 -96 0
-34 -97 0
-35 -98 0
-36 -99 0
-28 -109 0
-29 -110 0
-30 -111 0
-31 -112 0
-32 -113 0
-33 -114 0
-34 -115 0
-35 -116 0
-36 -117 0
-28 -199 0
-29 -200 0
-30 -201 0
-31 -202 0
-32 -203 0
-33 -204 0
-34 -205 0
-35 -206 0
-36 -207 0
-28 -190 0
-29 -191 0
-30 -192 0
-31 -193 0
-32 -194 0
-33 -195 0
-34 -196 0
-35 -197 0
-36 -198 0
-37 -64 0
-38 -65 0
-39 -66 0
-40 -67 0
-41 -68 0
-42 -69 0
-43 -70 0
-44 -71 0
-45 -72 0
-37 -154 0
-38 -155 0
-39 -156 0
-40 -157 0
-41 -158 0
-42 -159 0
-43 -160 0
-44 -161 0
-45 -162 0
-37 -91 0
-38 -92 0
-39 -93 0
-40 -94 0
-41 -95 0
-42 -96 0
-43 -97 0
-44 -98 0
-45 -99 0
-37 -181 0
-38 -182 0
-39 -183 0
-40 -184 0
-41 -185 0
-42 -186 0
-43 -187 0
-44 -188 0
-45 -189 0
-37 -118 0
-38 -119 0
-39 -120 0
-40 -121 0
-41 -122 0
-42 -123 0
-43 -124 0
-44 -125 0
-45 -126 0
-37 -46 0
-38 -47 0
-39 -48 0
-40 -49 0
-41 -50 0
-42 -51 0
-43 -52 0
-44 -53 0
-45 -54 0
-37 -172 0
-38 -173 0
-39 -174 0
-40 -175 0
-41 -176 0
-42 -177 0
-43 -178 0
-44 -179 0
-45 -180 0
-37 -82 0
-38 -83 0
-39 -84 0
-40 -85 0
-41 -86 0
-42 -87 0
-43 -88 0
-44 -89 0
-45 -90 0
-37 -55 0
-38 -56 0
-39 -57 0
-40 -58 0
-41 -59 0
-42 -60 0
-43 -61 0
-44 -62 0
-45 -63 0
-37 -190 0
-38 -191 0
-39 -192 0
-40 -193 0
-41 -194 0
-42 -195 0
-43 -196 0
-44 -197 0
-45 -198 0
-37 -163 0
-38 -164 0
-39 -165 0
-40 -166 0
-41 -167 0
-42 -168 0
-43 -169 0
-44 -170 0
-45 -171 0
-46 -73 0
-47 -74 0
-48 -75 0
-49 -76 0
-50 -77 0
-51 -78 0
-52 -79 0
-53 -80 0
-54 -81 0
-46 -136 0
-47 -137 0
-48 -138 0
-49 -139 0
-50 -140 0
-51 -141 0
-52 -142 0
-53 -143 0
-54 -144 0
-46 -64 0
-47 -65 0
-48 -66 0
-49 -67 0
-50 -68 0
-51 -69 0
-52 -70 0
-53 -71 0
-54 -72 0
-46 -154 0
-47 -155 0
-48 -156 0
-49 -157 0
-50 -158 0
-51 -159 0
-52 -160 0
-53 -161 0
-54 -162 0
-46 -91 0
-47 -92 0
-48 -93 0
-49 -94 0
-50 -95 0
-51 -96 0
-52 -97 0
-53 -98 0
-54 -99 0
-46 -181 0
-47 -182 0
-48 -183 0
-49 -184 0
-50 -185 0
-51 -186 0
-52 -187 0
-53 -188 0
-54 -189 0
-46 -163 0
-47 -164 0
-48 -165 0
-49 -166 0
-50 -167 0
-51 -168 0
-52 -169 0
-53 -170 0
-54 -171 0
-46 -100 0
-47 -101 0
-48 -102 0
-49 -103 0
-50 -104 0
-51 -105 0
-52 -106 0
-53 -107 0
-54 -108 0
-55 -64 0
-56 -65 0
-57 -66 0
-58 -67 0
-59 -68 0
-60 -69 0
-61 -70 0
-62 -71 0
-63 -72 0
-55 -145 0
-56 -146 0
-57 -147 0
-58 -148 0
-59 -149 0
-60 -150 0
-61 -151 0
-62 -152 0
-63 -153 0
-55 -154 0
-56 -155 0
-57 -156 0
-58 -157 0
-59 -158 0
-60 -159 0
-61 -160 0
-62 -161 0
-63 -162 0
-55 -181 0
-56 -182 0
-57 -183 0
-58 -184 0
-59 -185 0
-60 -186 0
-61 -187 0
-62 -188 0
-63 -189 0
-55 -118 0
-56 -119 0
-57 -120 0
-58 -121 0
-59 -122 0
-60 -123 0
-61 -124 0
-62 -125 0
-63 -126 0
-55 -127 0
-56 -128 0
-57 -129 0
-58 -130 0
-59 -131 0
-60 -132 0
-61 -133 0
-62 -134 0
-63 -135 0
-55 -172 0
-56 -173 0
-57 -174 0
-58 -175 0
-59 -176 0
-60 -177 0
-61 -178 0
-62 -179 0
-63 -180 0
-55 -82 0
-56 -83 0
-57 -84 0
-58 -85 0
-59 -86 0
-60 -87 0
-61 -88 0
-62 -89 0
-63 -90 0
-55 -190 0
-56 -191 0
-57 -192 0
-58 -193 0
-59 -194 0
-60 -195 0
-61 -196 0
-62 -197 0
-63 -198 0
-55 -163 0
-56 -164 0
-57 -165 0
-58 -166 0
-59 -167 0
-60 -168 0
-61 -169 0
-62 -170 0
-63 -171 0
-64 -73 0
-65 -74 0
-66 -75 0
-67 -76 0
-68 -77 0
-69 -78 0
-70 -79 0
-71 -80 0
-72 -81 0
-64 -136 0
-65 -137 0
-66 -138 0
-67 -139 0
-68 -140 0
-69 -141 0
-70 -142 0
-71 -143 0
-72 -144 0
-64 -145 0
-65 -146 0
-66 -147 0
-67 -148 0
-68 -149 0
-69 -150 0
-70 -151 0
-71 -152 0
-72 -153 0
-64 -190 0
-65 -191 0
-66 -192 0
-67 -193 0
-68 -194 0
-69 -195 0
-70 -196 0
-71 -197 0
-72 -198 0
-64 -163 0
-65 -164 0
-66 -165 0
-67 -166 0
-68 -167 0
-69 -168 0
-70 -169 0
-71 -170 0
-72 -171 0
-64 -109 0
-65 -110 0
-66 -111 0
-67 -112 0
-68 -113 0
-69 -114 0
-70 -115 0
-71 -116 0
-72 -117 0
-64 -127 0
-65 -128 0
-66 -129 0
-67 -130 0
-68 -131 0
-69 -132 0
-70 -133 0
-71 -134 0
-72 -135 0
-64 -82 0
-65 -83 0
-66 -84 0
-67 -85 0
-68 -86 0
-69 -87 0
-70 -88 0
-71 -89 0
-72 -90 0
-64 -100 0
-65 -101 0
-66 -102 0
-67 -103 0
-68 -104 0
-69 -105 0
-70 -106 0
-71 -107 0
-72 -108 0
-73 -136 0
-74 -137 0
-75 -138 0
-76 -139 0
-77 -140 0
-78 -141 0
-79 -142 0
-80 -143 0
-81 -144 0
-73 -145 0
-74 -146 0
-75 -147 0
-76 -148 0
-77 -149 0
-78 -150 0
-79 -151 0
-80 -152 0
-81 -153 0
-73 -109 0
-74 -110 0
-75 -111 0
-76 -112 0
-77 -113 0
-78 -114 0
-79 -115 0
-80 -116 0
-81 -117 0
-73 -199 0
-74 -200 0
-75 -201 0
-76 -202 0
-77 -203 0
-78 -204 0
-79 -205 0
-80 -206 0
-81 -207 0
-73 -127 0
-74 -128 0
-75 -129 0
-76 -130 0
-77 -131 0
-78 -132 0
-79 -133 0
-80 -134 0
-81 -135 0
-73 -82 0
-74 -83 0
-75 -84 0
-76 -85 0
-77 -86 0
-78 -87 0
-79 -88 0
-80 -89 0
-81 -90 0
-73 -190 0
-74 -191 0
-75 -192 0
-76 -193 0
-77 -194 0
-78 -195 0
-79 -196 0
-80 -197 0
-81 -198 0
-73 -163 0
-74 -164 0
-75 -165 0
-76 -166 0
-77 -167 0
-78 -168 0
-79 -169 0
-80 -170 0
-81 -171 0
-73 -100 0
-74 -101 0
-75 -102 0
-76 -103 0
-77 -104 0
-78 -105 0
-79 -106 0
-80 -107 0
-81 -108 0
-82 -145 0
-83 -146 0
-84 -147 0
-85 -148 0
-86 -149 0
-87 -150 0
-88 -151 0
-89 -152 0
-90 -153 0
-82 -154 0
-83 -155 0
-84 -156 0
-85 -157 0
-86 -158 0
-87 -159 0
-88 -160 0
-89 -161 0
-90 -162 0
-82 -181 0
-83 -182 0
-84 -183 0
-85 -184 0
-86 -185 0
-87 -186 0
-88 -187 0
-89 -188 0
-90 -189 0
-82 -118 0
-83 -119 0
-84 -120 0
-85 -121 0
-86 -122 0
-87 -123 0
-88 -124 0
-89 -125 0
-90 -126 0
-82 -109 0
-83 -110 0
-84 -111 0
-85 -112 0
-86 -113 0
-87 -114 0
-88 -115 0
-89 -116 0
-90 -117 0
-82 -199 0
-83 -200 0
-84 -201 0
-85 -202 0
-86 -203 0
-87 -204 0
-88 -205 0
-89 -206 0
-90 -207 0
-82 -127 0
-83 -128 0
-84 -129 0
-85 -130 0
-86 -131 0
-87 -132 0
-88 -133 0
-89 -134 0
-90 -135 0
-82 -172 0
-83 -173 0
-84 -174 0
-85 -175 0
-86 -176 0
-87 -177 0
-88 -178 0
-89 -179 0
-90 -180 0
-82 -190 0
-83 -191 0
-84 -192 0
-85 -193 0
-86 -194 0
-87 -195 0
-88 -196 0
-89 -197 0
-90 -198 0
-91 -136 0
-92 -137 0
-93 -138 0
-94 -139 0
-95 -140 0
-96 -141 0
-97 -142 0
-98 -143 0
-99 -144 0
-91 -154 0
-92 -155 0
-93 -156 0
-94 -157 0
-95 -158 0
-96 -159 0
-97 -160 0
-98 -161 0
-99 -162 0
-91 -181 0
-92 -182 0
-93 -183 0
-94 -184 0
-95 -185 0
-96 -186 0
-97 -187 0
-98 -188 0
-99 -189 0
-91 -100 0
-92 -101 0
-93 -102 0
-94 -103 0
-95 -104 0
-96 -105 0
-97 -106 0
-98 -107 0
-99 -108 0
-91 -118 0
-92 -119 0
-93 -120 0
-94 -121 0
-95 -122 0
-96 -123 0
-97 -124 0
-98 -125 0
-99 -126 0
-91 -199 0
-92 -200 0
-93 -201 0
-94 -202 0
-95 -203 0
-96 -204 0
-97 -205 0
-98 -206 0
-99 -207 0
-91 -172 0
-92 -173 0
-93 -174 0
-94 -175 0
-95 -176 0
-96 -177 0
-97 -178 0
-98 -179 0
-99 -180 0
-91 -163 0
-92 -164 0
-93 -165 0
-94 -166 0
-95 -167 0
-96 -168 0
-97 -169 0
-98 -170 0
-99 -171 0
-100 -136 0
-101 -137 0
-102 -138 0
-103 -139 0
-104 -140 0
-105 -141 0
-106 -142 0
-107 -143 0
-108 -144 0
-100 -154 0
-101 -155 0
-102 -156 0
-103 -157 0
-104 -158 0
-105 -159 0
-106 -160 0
-107 -161 0
-108 -162 0
-100 -181 0
-101 -182 0
-102 -183 0
-103 -184 0
-104 -185 0
-105 -186 0
-106 -187 0
-107 -188 0
-108 -189 0
-100 -109 0
-101 -110 0
-102 -111 0
-103 -112 0
-104 -113 0
-105 -114 0
-106 -115 0
-107 -116 0
-108 -117 0
-100 -199 0
-101 -200 0
-102 -201 0
-103 -202 0
-104 -203 0
-105 -204 0
-106 -205 0
-107 -206 0
-108 -207 0
-100 -163 0
-101 -164 0
-102 -165 0
-103 -166 0
-104 -167 0
-105 -168 0
-106 -169 0
-107 -170 0
-108 -171 0
-109 -136 0
-110 -137 0
-111 -138 0
-112 -139 0
-113 -140 0
-114 -141 0
-115 -142 0
-116 -143 0
-117 -144 0
-109 -145 0
-110 -146 0
-111 -147 0
-112 -148 0
-113 -149 0
-114 -150 0
-115 -151 0
-116 -152 0
-117 -153 0
-109 -181 0
-110 -182 0
-111 -183 0
-112 -184 0
-113 -185 0
-114 -186 0
-115 -187 0
-116 -188 0
-117 -189 0
-109 -199 0
-110 -200 0
-111 -201 0
-112 -202 0
-113 -203 0
-114 -204 0
-115 -205 0
-116 -206 0
-117 -207 0
-109 -127 0
-110 -128 0
-111 -129 0
-112 -130 0
-113 -131 0
-114 -132 0
-115 -133 0
-116 -134 0
-117 -135 0
-109 -172 0
-110 -173 0
-111 -174 0
-112 -175 0
-113 -176 0
-114 -177 0
-115 -178 0
-116 -179 0
-117 -180 0
-109 -190 0
-110 -191 0
-111 -192 0
-112 -193 0
-113 -194 0
-114 -195 0
-115 -196 0
-116 -197 0
-117 -198 0
-118 -145 0
-119 -146 0
-120 -147 0
-121 -148 0
-122 -149 0
-123 -150 0
-124 -151 0
-125 -152 0
-126 -153 0
-118 -154 0
-119 -155 0
-120 -156 0
-121 -157 0
-122 -158 0
-123 -159 0
-124 -160 0
-125 -161 0
-126 -162 0
-118 -181 0
-119 -182 0
-120 -183 0
-121 -184 0
-122 -185 0
-123 -186 0
-124 -187 0
-125 -188 0
-126 -189 0
-118 -172 0
-119 -173 0
-120 -174 0
-121 -175 0
-122 -176 0
-123 -177 0
-124 -178 0
-125 -179 0
-126 -180 0
-118 -199 0
-119 -200 0
-120 -201 0
-121 -202 0
-122 -203 0
-123 -204 0
-124 -205 0
-125 -206 0
-126 -207 0
-118 -127 0
-119 -128 0
-120 -129 0
-121 -130 0
-122 -131 0
-123 -132 0
-124 -133 0
-125 -134 0
-126 -135 0
-118 -190 0
-119 -191 0
-120 -192 0
-121 -193 0
-122 -194 0
-123 -195 0
-124 -196 0
-125 -197 0
-126 -198 0
-127 -136 0
-128 -137 0
-129 -138 0
-130 -139 0
-131 -140 0
-132 -141 0
-133 -142 0
-134 -143 0
-135 -144 0
-127 -145 0
-128 -146 0
-129 -147 0
-130 -148 0
-131 -149 0
-132 -150 0
-133 -151 0
-134 -152 0
-135 -153 0
-127 -181 0
-128 -182 0
-129 -183 0
-130 -184 0
-131 -185 0
-132 -186 0
-133 -187 0
-134 -188 0
-135 -189 0
-127 -199 0
-128 -200 0
-129 -201 0
-130 -202 0
-131 -203 0
-132 -204 0
-133 -205 0
-134 -206 0
-135 -207 0
-127 -172 0
-128 -173 0
-129 -174 0
-130 -175 0
-131 -176 0
-132 -177 0
-133 -178 0
-134 -179 0
-135 -180 0
-127 -190 0
-128 -191 0
-129 -192 0
-130 -193 0
-131 -194 0
-132 -195 0
-133 -196 0
-134 -197 0
-135 -198 0
-136 -199 0
-137 -200 0
-138 -201 0
-139 -202 0
-140 -203 0
-141 -204 0
-142 -205 0
-143 -206 0
-144 -207 0
-136 -145 0
-137 -146 0
-138 -147 0
-139 -148 0
-140 -149 0
-141 -150 0
-142 -151 0
-143 -152 0
-144 -153 0
-136 -181 0
-137 -182 0
-138 -183 0
-139 -184 0
-140 -185 0
-141 -186 0
-142 -187 0
-143 -188 0
-144 -189 0
-136 -172 0
-137 -173 0
-138 -174 0
-139 -175 0
-140 -176 0
-141 -177 0
-142 -178 0
-143 -179 0
-144 -180 0
-136 -163 0
-137 -164 0
-138 -165 0
-139 -166 0
-140 -167 0
-141 -168 0
-142 -169 0
-143 -170 0
-144 -171 0
-145 -190 0
-146 -191 0
-147 -192 0
-148 -193 0
-149 -194 0
-150 -195 0
-151 -196 0
-152 -197 0
-153 -198 0
-145 -199 0
-146 -200 0
-147 -201 0
-148 -202 0
-149 -203 0
-150 -204 0
-151 -205 0
-152 -206 0
-153 -207 0
-145 -172 0
-146 -173 0
-147 -174 0
-148 -175 0
-149 -176 0
-150 -177 0
-151 -178 0
-152 -179 0
-153 -180 0
-145 -163 0
-146 -164 0
-147 -165 0
-148 -166 0
-149 -167 0
-150 -168 0
-151 -169 0
-152 -170 0
-153 -171 0
-154 -181 0
-155 -182 0
-156 -183 0
-157 -184 0
-158 -185 0
-159 -186 0
-160 -187 0
-161 -188 0
-162 -189 0
-154 -199 0
-155 -200 0
-156 -201 0
-157 -202 0
-158 -203 0
-159 -204 0
-160 -205 0
-161 -206 0
-162 -207 0
-154 -172 0
-155 -173 0
-156 -174 0
-157 -175 0
-158 -176 0
-159 -177 0
-160 -178 0
-161 -179 0
-162 -180 0
-154 -163 0
-155 -164 0
-156 -165 0
-157 -166 0
-158 -167 0
-159 -168 0
-160 -169 0
-161 -170 0
-162 -171 0
-163 -190 0
-164 -191 0
-165 -192 0
-166 -193 0
-167 -194 0
-168 -195 0
-169 -196 0
-170 -197 0
-171 -198 0
-172 -181 0
-173 -182 0
-174 -183 0
-175 -184 0
-176 -185 0
-177 -186 0
-178 -187 0
-179 -188 0
-180 -189 0
-172 -199 0
-173 -200 0
-174 -201 0
-175 -202 0
-176 -203 0
-177 -204 0
-178 -205 0
-179 -206 0
-180 -207 0
-172 -190 0
-173 -191 0
-174 -192 0
-175 -193 0
-176 -194 0
-177 -195 0
-178 -196 0
-179 -197 0
-180 -198 0
-181 -199 0
-182 -200 0
-183 -201 0
-184 -202 0
-185 -203 0
-186 -204 0
-187 -205 0
-188 -206 0
-189 -207 0
1 2 3 4 5 6 7 8 9 0
-1 -2 0
-1 -3 0
-1 -4 0
-1 -5 0
-1 -6 0
-1 -7 0
-1 -8 0
-1 -9 0
-2 -3 0
-2 -4 0
-2 -5 0
-2 -6 0
-2 -7 0
-2 -8 0
-2 -9 0
-3 -4 0
-3 -5 0
-3 -6 0
-3 -7 0
-3 -8 0
-3 -9 0
-4 -5 0
-4 -6 0
-4 -7 0
-4 -8 0
-4 -9 0
-5 -6 0
-5 -7 0
-5 -8 0
-5 -9 0
-6 -7 0
-6 -8 0
-6 -9 0
-7 -8 0
-7 -9 0
-8 -9 0
10 11 12 13 14 15 16 17 18 0
-10 -11 0
-10 -12 0
-10 -13 0
-10 -14 0
-10 -15 0
-10 -16 0
-10 -17 0
-10 -18 0
-11 -12 0
-11 -13 0
-11 -14 0
-11 -15 0
-11 -16 0
-11 -17 0
-11 -18 0
-12 -13 0
-12 -14 0
-12 -15 0
-12 -16 0
-12 -17 0
-12 -18 0
-13 -14 0
-13 -15 0
-13 -16 0
-13 -17 0
-13 -18 0
-14 -15 0
-14 -16 0
-14 -17 0
-14 -18 0
-15 -16 0
-15 -17 0
-15 -18 0
-16 -17 0
-16 -18 0
-17 -18 0
19 20 21 22 23 24 25 26 27 0
-19 -20 0
-19 -21 0
-19 -22 0
-19 -23 0
-19 -24 0
-19 -25 0
-19 -26 0
-19 -27 0
-20 -21 0
-20 -22 0
-20 -23 0
-20 -24 0
-20 -25 0
-20 -26 0
-20 -27 0
-21 -22 0
-21 -23 0
-21 -24 0
-21 -25 0
-21 -26 0
-21 -27 0
-22 -23 0
-22 -24 0
-22 -25 0
-22 -26 0
-22 -27 0
-23 -24 0
-23 -25 0
-23 -26 0
-23 -27 0
-24 -25 0
-24 -26 0
-24 -27 0
-25 -26 0
-25 -27 0
-26 -27 0
28 29 30 31 32 33 34 35 36 0
-28 -29 0
-28 -30 0
-28 -31 0
-28 -32 0
-28 -33 0
-28 -34 0
-28 -35 0
-28 -36 0
-29 -30 0
-29 -31 0
-29 -32 0
-29 -33 0
-29 -34 0
-29 -35 0
-29 -36 0
-30 -31 0
-30 -32 0
-30 -33 0
-30 -34 0
-30 -35 0
-30 -36 0
-31 -32 0
-31 -33 0
-31 -34 0
-31 -35 0
-31 -36 0
-32 -33 0
-32 -34 0
-32 -35 0
-32 -36 0
-33 -34 0
-33 -35 0
-33 -36 0
-34 -35 0
-34 -36 0
-35 -36 0
37 38 39 40 41 42 43 44 45 0
-37 -38 0
-37 -39 0
-37 -40 0
-37 -41 0
-37 -42 0
-37 -43 0
-37 -44 0
-37 -45 0
-38 -39 0
-38 -40 0
-38 -41 0
-38 -42 0
-38 -43 0
-38 -44 0
-38 -45 0
-39 -40 0
-39 -41 0
-39 -42 0
-39 -43 0
-39 -44 0
-39 -45 0
-40 -41 0
-40 -42 0
-40 -43 0
-40 -44 0
-40 -45 0
-41 -42 0
-41 -43 0
-41 -44 0
-41 -45 0
-42 -43 0
-42 -44 0
-42 -45 0
-43 -44 0
-43 -45 0
-44 -45 0
46 47 48 49 50 51 52 53 54 0
-46 -47 0
-46 -48 0
-46 -49 0
-46 -50 0
-46 -51 0
-46 -52 0
-46 -53 0
-46 -54 0
-47 -48 0
-47 -49 0
-47 -50 0
-47 -51 0
-47 -52 0
-47 -53 0
-47 -54 0
-48 -49 0
-48 -50 0
-48 -51 0
-48 -52 0
-48 -53 0
-48 -54 0
-49 -50 0
-49 -51 0
-49 -52 0
-49 -53 0
-49 -54 0
-50 -51 0
-50 -52 0
-50 -53 0
-50 -54 0
-51 -52 0
-51 -53 0
-51 -54 0
-52 -53 0
-52 -54 0
-53 -54 0
55 56 57 58 59 60 61 62 63 0
-55 -56 0
-55 -57 0
-55 -58 0
-55 -59 0
-55 -60 0
-55 -61 0
-55 -62 0
-55 -63 0
-56 -57 0
-56 -58 0
-56 -59 0
-56 -60 0
-56 -61 0
-56 -62 0
-56 -63 0
-57 -58 0
-57 -59 0
-57 -60 0
-57 -61 0
-57 -62 0
-57 -63 0
-58 -59 0
-58 -60 0
-58 -61 0
-58 -62 0
-58 -63 0
-59 -60 0
-59 -61 0
-59 -62 0
-59 -63 0
-60 -61 0
-60 -62 0
-60 -63 0
-61 -62 0
-61 -63 0
-62 -63 0
64 65 66 67 68 69 70 71 72 0
-64 -65 0
-64 -66 0
-64 -67 0
-64 -68 0
-64 -69 0
-64 -70 0
-64 -71 0
-64 -72 0
-65 -66 0
-65 -67 0
-65 -68 0
-65 -69 0
-65 -70 0
-65 -71 0
-65 -72 0
-66 -67 0
-66 -68 0
-66 -69 0
-66 -70 0
-66 -71 0
-66 -72 0
-67 -68 0
-67 -69 0
-67 -70 0
-67 -71 0
-67 -72 0
-68 -69 0
-68 -70 0
-68 -71 0
-68 -72 0
-69 -70 0
-69 -71 0
-69 -72 0
-70 -71 0
-70 -72 0
-71 -72 0
73 74 75 76 77 78 79 80 81 0
-73 -74 0
-73 -75 0
-73 -76 0
-73 -77 0
-73 -78 0
-73 -79 0
-73 -80 0
-73 -81 0
-74 -75 0
-74 -76 0
-74 -77 0
-74 -78 0
-74 -79 0
-74 -80 0
-74 -81 0
-75 -76 0
-75 -77 0
-75 -78 0
-75 -79 0
-75 -80 0
-75 -81 0
-76 -77 0
-76 -78 0
-76 -79 0
-76 -80 0
-76 -81 0
-77 -78 0
-77 -79 0
-77 -80 0
-77 -81 0
-78 -79 0
-78 -80 0
-78 -81 0
-79 -80 0
-79 -81 0
-80 -81 0
82 83 84 85 86 87 88 89 90 0
-82 -83 0
-82 -84 0
-82 -85 0
-82 -86 0
-82 -87 0
-82 -88 0
-82 -89 0
-82 -90 0
-83 -84 0
-83 -85 0
-83 -86 0
-83 -87 0
-83 -88 0
-83 -89 0
-83 -90 0
-84 -85 0
-84 -86 0
-84 -87 0
-84 -88 0
-84 -89 0
-84 -90 0
-85 -86 0
-85 -87 0
-85 -88 0
-85 -89 0
-85 -90 0
-86 -87 0
-86 -88 0
-86 -89 0
-86 -90 0
-87 -88 0
-87 -89 0
-87 -90 0
-88 -89 0
-88 -90 0
-89 -90 0
91 92 93 94 95 96 97 98 99 0
-91 -92 0
-91 -93 0
-91 -94 0
-91 -95 0
-91 -96 0
-91 -97 0
-91 -98 0
-91 -99 0
-92 -93 0
-92 -94 0
-92 -95 0
-92 -96 0
-92 -97 0
-92 -98 0
-92 -99 0
-93 -94 0
-93 -95 0
-93 -96 0
-93 -97 0
-93 -98 0
-93 -99 0
-94 -95 0
-94 -96 0
-94 -97 0
-94 -98 0
-94 -99 0
-95 -96 0
-95 -97 0
-95 -98 0
-95 -99 0
-96 -97 0
-96 -98 0
-96 -99 0
-97 -98 0
-97 -99 0
-98 -99 0
100 101 102 103 104 105 106 107 108 0
-100 -101 0
-100 -102 0
-100 -103 0
-100 -104 0
-100 -105 0
-100 -106 0
-100 -107 0
-100 -108 0
-101 -102 0
-101 -103 0
-101 -104 0
-101 -105 0
-101 -106 0
-101 -107 0
-101 -108 0
-102 -103 0
-102 -104 0
-102 -105 0
-102 -106 0
-102 -107 0
-102 -108 0
-103 -104 0
-103 -105 0
-103 -106 0
-103 -107 0
-103 -108 0
-104 -105 0
-104 -106 0
-104 -107 0
-104 -108 0
-105 -106 0
-105 -107 0
-105 -108 0
-106 -107 0
-106 -108 0
-107 -108 0
109 110 111 112 113 114 115 116 117 0
-109 -110 0
-109 -111 0
-109 -112 0
-109 -113 0
-109 -114 0
-109 -115 0
-109 -116 0
-109 -117 0
-110 -111 0
-110 -112 0
-110 -113 0
-110 -114 0
-110 -115 0
-110 -116 0
-110 -117 0
-111 -112 0
-111 -113 0
-111 -114 0
-111 -115 0
-111 -116 0
-111 -117 0
-112 -113 0
-112 -114 0
-112 -115 0
-112 -116 0
-112 -117 0
-113 -114 0
-113 -115 0
-113 -116 0
-113 -117 0
-114 -115 0
-114 -116 0
-114 -117 0
-115 -116 0
-115 -117 0
-116 -117 0
118 119 120 121 122 123 124 125 126 0
-118 -119 0
-118 -120 0
-118 -121 0
-118 -122 0
-118 -123 0
-118 -124 0
-118 -125 0
-118 -126 0
-119 -120 0
-119 -121 0
-119 -122 0
-119 -123 0
-119 -124 0
-119 -125 0
-119 -126 0
-120 -121 0
-120 -122 0
-120 -123 0
-120 -124 0
-120 -125 0
-120 -126 0
-121 -122 0
-121 -123 0
-121 -124 0
-121 -125 0
-121 -126 0
-122 -123 0
-122 -124 0
-122 -125 0
-122 -126 0
-123 -124 0
-123 -125 0
-123 -126 0
-124 -125 0
-124 -126 0
-125 -126 0
127 128 129 130 131 132 133 134 135 0
-127 -128 0
-127 -129 0
-127 -130 0
-127 -131 0
-127 -132 0
-127 -133 0
-127 -134 0
-127 -135 0
-128 -129 0
-128 -130 0
-128 -131 0
-128 -132 0
-128 -133 0
-128 -134 0
-128 -135 0
-129 -130 0
-129 -131 0
-129 -132 0
-129 -133 0
-129 -134 0
-129 -135 0
-130 -131 0
-130 -132 0
-130 -133 0
-130 -134 0
-130 -135 0
-131 -132 0
-131 -133 0
-131 -134 0
-131 -135 0
-132 -133 0
-132 -134 0
-132 -135 0
-133 -134 0
-133 -135 0
-134 -135 0
136 137 138 139 140 141 142 143 144 0
-136 -137 0
-136 -138 0
-136 -139 0
-136 -140 0
-136 -141 0
-136 -142 0
-136 -143 0
-136 -144 0
-137 -138 0
-137 -139 0
-137 -140 0
-137 -141 0
-137 -142 0
-137 -143 0
-137 -144 0
-138 -139 0
-138 -140 0
-138 -141 0
-138 -142 0
-138 -143 0
-138 -144 0
-139 -140 0
-139 -141 0
-139 -142 0
-139 -143 0
-139 -144 0
-140 -141 0
-140 -142 0
-140 -143 0
-140 -144 0
-141 -142 0
-141 -143 0
-141 -144 0
-142 -143 0
-142 -144 0
-143 -144 0
145 146 147 148 149 150 151 152 153 0
-145 -146 0
-145 -147 0
-145 -148 0
-145 -149 0
-145 -150 0
-145 -151 0
-145 -152 0
-145 -153 0
-146 -147 0
-146 -148 0
-146 -149 0
-146 -150 0
-146 -151 0
-146 -152 0
-146 -153 0
-147 -148 0
-147 -149 0
-147 -150 0
-147 -151 0
-147 -152 0
-147 -153 0
-148 -149 0
-148 -150 0
-148 -151 0
-148 -152 0
-148 -153 0
-149 -150 0
-149 -151 0
-149 -152 0
-149 -153 0
-150 -151 0
-150 -152 0
-150 -153 0
-151 -152 0
-151 -153 0
-152 -153 0
154 155 156 157 158 159 160 161 162 0
-154 -155 0
-154 -156 0
-154 -157 0
-154 -158 0
-154 -159 0
-154 -160 0
-154 -161 0
-154 -162 0
-155 -156 0
-155 -157 0
-155 -158 0
-155 -159 0
-155 -160 0
-155 -161 0
-155 -162 0
-156 -157 0
-156 -158 0
-156 -159 0
-156 -160 0
-156 -161 0
-156 -162 0
-157 -158 0
-157 -159 0
-157 -160 0
-157 -161 0
-157 -162 0
-158 -159 0
-158 -160 0
-158 -161 0
-158 -162 0
-159 -160 0
-159 -161 0
-159 -162 0
-160 -161 0
-160 -162 0
-161 -162 0
163 164 165 166 167 168 169 170 171 0
-163 -164 0
-163 -165 0
-163 -166 0
-163 -167 0
-163 -168 0
-163 -169 0
-163 -170 0
-163 -171 0
-164 -165 0
-164 -166 0
-164 -167 0
-164 -168 0
-164 -169 0
-164 -170 0
-164 -171 0
-165 -166 0
-165 -167 0
-165 -168 0
-165 -169 0
-165 -170 0
-165 -171 0
-166 -167 0
-166 -168 0
-166 -169 0
-166 -170 0
-166 -171 0
-167 -168 0
-167 -169 0
-167 -170 0
-167 -171 0
-168 -169 0
-168 -170 0
-168 -171 0
-169 -170 0
-169 -171 0
-170 -171 0
172 173 174 175 176 177 178 179 180 0
-172 -173 0
-172 -174 0
-172 -175 0
-172 -176 0
-172 -177 0
-172 -178 0
-172 -179 0
-172 -180 0
-173 -174 0
-173 -175 0
-173 -176 0
-173 -177 0
-173 -178 0
-173 -179 0
-173 -180 0
-174 -175 0
-174 -176 0
-174 -177 0
-174 -178 0
-174 -179 0
-174 -180 0
-175 -176 0
-175 -177 0
-175 -178 0
-175 -179 0
-175 -180 0
-176 -177 0
-176 -178 0
-176 -179 0
-176 -180 0
-177 -178 0
-177 -179 0
-177 -180 0
-178 -179 0
-178 -180 0
-179 -180 0
181 182 183 184 185 186 187 188 189 0
-181 -182 0
-181 -183 0
-181 -184 0
-181 -185 0
-181 -186 0
-181 -187 0
-181 -188 0
-181 -189 0
-182 -183 0
-182 -184 0
-182 -185 0
-182 -186 0
-182 -187 0
-182 -188 0
-182 -189 0
-183 -184 0
-183 -185 0
-183 -186 0
-183 -187 0
-183 -188 0
-183 -189 0
-184 -185 0
-184 -186 0
-184 -187 0
-184 -188 0
-184 -189 0
-185 -186 0
-185 -187 0
-185 -188 0
-185 -189 0
-186 -187 0
-186 -188 0
-186 -189 0
-187 -188 0
-187 -189 0
-188 -189 0
190 191 192 193 194 195 196 197 198 0
-190 -191 0
-190 -192 0
-190 -193 0
-190 -194 0
-190 -195 0
-190 -196 0
-190 -197 0
-190 -198 0
-191 -192 0
-191 -193 0
-191 -194 0
-191 -195 0
-191 -196 0
-191 -197 0
-191 -198 0
-192 -193 0
-192 -194 0
-192 -195 0
-192 -196 0
-192 -197 0
-192 -198 0
-193 -194 0
-193 -195 0
-193 -196 0
-193 -197 0
-193 -198 0
-194 -195 0
-194 -196 0
-194 -197 0
-194 -198 0
-195 -196 0
-195 -197 0
-195 -198 0
-196 -197 0
-196 -198 0
-197 -198 0
199 200 201 202 203 204 205 206 207 0
-199 -200 0
-199 -201 0
-199 -202 0
-199 -203 0
-199 -204 0
-199 -205 0
-199 -206 0
-199 -207 0
-200 -201 0
-200 -202 0
-200 -203 0
-200 -204 0
-200 -205 0
-200 -206 0
-200 -207 0
-201 -202 0
-201 -203 0
-201 -204 0
-201 -205 0
-201 -206 0
-201 -207 0
-202 -203 0
-202 -204 0
-202 -205 0
-202 -206 0
-202 -207 0
-203 -204 0
-203 -205 0
-203 -206 0
-203 -207 0
-204 -205 0
-204 -206 0
-204 -207 0
-205 -206 0
-205 -207 0
-206 -207 0
